Lectures/Lec8-SAT.lp
max	phi: c1 + c2 +c3
s.t.    
	one: x1 - x2 + x3 - c1 >= -1
	two: -x1- x2 - x3 - c2 >= -2
	three: x1 + x2 -x3 -c3 >= -1
binaries
	x1 x2 x3 c1 c2 c3
end
