Lectures/Lec8-SAT.lp.out
Problem:    
Rows:       3
Columns:    6 (6 integer, 6 binary)
Non-zeros:  12
Status:     INTEGER OPTIMAL
Objective:  phi = 3 (MAXimum)

   No.   Row name        Activity     Lower bound   Upper bound
------ ------------    ------------- ------------- -------------
     1 one                        -1            -1
     2 two                        -1            -2
     3 three                      -1            -1

   No. Column name       Activity     Lower bound   Upper bound
------ ------------    ------------- ------------- -------------
     1 c1           *              1             0             1
     2 c2           *              1             0             1
     3 c3           *              1             0             1
     4 x1           *              0             0             1
     5 x2           *              0             0             1
     6 x3           *              0             0             1

Integer feasibility conditions:

INT.PE: max.abs.err. = 0.00e+00 on row 0
        max.rel.err. = 0.00e+00 on row 0
        High quality

INT.PB: max.abs.err. = 0.00e+00 on row 0
        max.rel.err. = 0.00e+00 on row 0
        High quality

End of output
